 $contrl scftyp=rhf $end

! One of the following
 $contrl dfttyp=b3lyp $end
! $contrl mplevl=2 $end

 $system timlim=10000 mwords=20 $end
 $SCF DIRSCF=.TRUE. $end

 $basis gbasis=N31 ngauss=6 ndfunc=2 npfunc=1 $end

! One of the following
 $guess guess=huckel $end

! SVP for isodensity surface
 $SVP RHOISO=0.001 NVLPL=2 DIELST=999 IPNRF=1 $END
